
Gurobi 12.0.2 (win64) logging started Fri Jun  6 10:09:15 2025

Set parameter LogFile to value "C:\Ioana\_uni\honours\slp\algorithm\Main_files\results\others\prox_tubules_new\Task_002_Sample005_irr_gurobi.log"
Gurobi Optimizer version 12.0.2 build v12.0.2rc0 (win64 - Windows 11.0 (26100.2))

CPU model: Intel(R) Core(TM) Ultra 5 125H, instruction set [SSE2|AVX|AVX2]
Thread count: 14 physical cores, 18 logical processors, using up to 18 threads

Non-default parameters:
TimeLimit  2200

Optimize a model with 47658 rows, 34811 columns and 147858 nonzeros
Model fingerprint: 0x9b1c25bf
Variable types: 17417 continuous, 17394 integer (17394 binary)
Coefficient statistics:
  Matrix range     [1e-04, 8e+04]
  Objective range  [5e-05, 3e+00]
  Bounds range     [1e+00, 1e+03]
  RHS range        [1e+00, 1e+00]
Presolve removed 31205 rows and 21843 columns
Presolve time: 0.32s
Presolved: 16453 rows, 12968 columns, 54699 nonzeros
Variable types: 6421 continuous, 6547 integer (6547 binary)

Root relaxation: objective 8.826730e-03, 3271 iterations, 0.24 seconds (0.43 work units)

    Nodes    |    Current Node    |     Objective Bounds      |     Work
 Expl Unexpl |  Obj  Depth IntInf | Incumbent    BestBd   Gap | It/Node Time

     0     0    0.00883    0   15          -    0.00883      -     -    0s
H    0     0                       6.1791412    0.00883   100%     -    0s
     0     0    2.66617    0   30    6.17914    2.66617  56.9%     -    0s
     0     0    2.66617    0   30    6.17914    2.66617  56.9%     -    0s
     0     0    2.67020    0   23    6.17914    2.67020  56.8%     -    1s
     0     0    2.67259    0   24    6.17914    2.67259  56.7%     -    1s
     0     0    4.52730    0   12    6.17914    4.52730  26.7%     -    1s
     0     0    4.55877    0    9    6.17914    4.55877  26.2%     -    1s
     0     0    5.31110    0   15    6.17914    5.31110  14.0%     -    1s
     0     0    5.38973    0   26    6.17914    5.38973  12.8%     -    1s
     0     0    5.39063    0   27    6.17914    5.39063  12.8%     -    1s
     0     0          -    0         6.17914    6.17875  0.01%     -    1s

Cutting planes:
  Gomory: 3
  Cover: 8
  Implied bound: 1
  Clique: 2
  MIR: 17
  StrongCG: 3
  Flow cover: 32
  Flow path: 18
  Network: 14
  Relax-and-lift: 2

Explored 1 nodes (5508 simplex iterations) in 1.66 seconds (1.87 work units)
Thread count was 18 (of 18 available processors)

Solution count 1: 6.17914 

Optimal solution found (tolerance 1.00e-04)
Best objective 6.179141163935e+00, best bound 6.178746523584e+00, gap 0.0064%
